
-3.58
-3.34
-3.18
-3.16
-3.1
-3.02
-2.96
-2.86
-2.8
-2.72
-2.66
-2.54
-2.44
-2.26
-2.06
-1.76
-1.3
-1.0
-0.76
-0.58
-0.56
-0.56
-0.56
-0.54
-0.54
-0.54
-0.54
-0.52
-0.5
-0.5
-0.48
-0.48
-0.48
-0.46
-0.46
-0.46
-0.46
-0.46
-0.46
-0.46
-0.46
-0.46
-0.46
-0.46
-0.46
-0.46
-0.46
-0.46
-0.46
-0.46
-0.46
-0.46
-0.46
-0.46